benchmark_instances/dzn_benchmark_instances/benchmark_instance_4-4.dzn
% Input: sequence of points
seq_points = [|1,1
              |3,1
              |3,2
              |4,0
              |4,2
              |0,4
              |1,4
              |0,0
             |];

num_points = 8;
