benchmark_instances/lp_benchmark_instances/benchmark_instance_4-4.lp
% Input: sequence of points
point(1,1).
point(3,1).
point(3,2).
point(4,0).
point(4,2).
point(0,4).
point(1,4).
point(0,0).
